
List of user-set options:

                                    Name   Value                used
                           compl_inf_tol = 1                     yes
                         constr_viol_tol = 1                     yes
                            dual_inf_tol = 1000                  yes
                           linear_solver = ma97                  yes
                              ma86_small = 1e-30                  no
                                  ma86_u = 0.0001                 no
                              ma97_order = best                  yes
                              ma97_small = 1e-30                 yes
                            ma97_switch1 = at_start              yes
                            ma97_switch2 = od_hd_reuse           yes
                                  ma97_u = 1e-06                 yes
                               ma97_umax = 0.5                   yes
                                max_iter = 1000                  yes
                    max_refinement_steps = 20                    yes
                    min_refinement_steps = 5                     yes
                                 mu_init = 1e-06                 yes
           mu_superlinear_decrease_power = 1.25                  yes
                   nlp_scaling_min_value = 1e-08                 yes
                        option_file_name = Preset_Case_366_pf.opt  yes
                             output_file = ./tmp/Preset_Case_366_pf.output  yes
                      print_user_options = yes                   yes
        required_infeasibility_reduction = 1                      no
                                     tol = 1e-08                 yes
                   warm_start_bound_frac = 1e-20                 yes
                   warm_start_bound_push = 1e-20                 yes
                   warm_start_init_point = yes                   yes
              warm_start_mult_bound_push = 1e-20                 yes
                warm_start_mult_init_max = 1e+40                 yes
             warm_start_slack_bound_frac = 1e-20                 yes
             warm_start_slack_bound_push = 1e-20                 yes

******************************************************************************
This program contains Ipopt, a library for large-scale nonlinear optimization.
 Ipopt is released as open source code under the Eclipse Public License (EPL).
         For more information visit http://projects.coin-or.org/Ipopt
******************************************************************************

This is Ipopt version 3.12.10, running with linear solver ma97.

Number of nonzeros in equality constraint Jacobian...:   123443
Number of nonzeros in inequality constraint Jacobian.:      213
Number of nonzeros in Lagrangian Hessian.............:    49069

Total number of variables............................:    31591
                     variables with only lower bounds:    12912
                variables with lower and upper bounds:    15130
                     variables with only upper bounds:        0
Total number of equality constraints.................:    31483
Total number of inequality constraints...............:       25
        inequality constraints with only lower bounds:        4
   inequality constraints with lower and upper bounds:        0
        inequality constraints with only upper bounds:       21

iter    objective    inf_pr   inf_du lg(mu)  ||d||  lg(rg) alpha_du alpha_pr  ls
   0 -5.3958952e+00 4.04e-03 1.02e+00  -6.0 0.00e+00    -  0.00e+00 0.00e+00   0
   1 -5.3951404e+00 5.75e-02 1.02e+00  -6.0 3.61e+05    -  9.26e-05 8.07e-05h  5
   2 -5.3970855e+00 5.75e-02 9.97e+00  -6.0 6.29e+03    -  4.56e-02 1.93e-03h  1
   3 -5.4719314e+00 5.90e+01 5.37e+01  -6.0 3.98e+04    -  5.30e-02 4.76e-02f  1
   4 -5.4831871e+00 6.03e+01 6.53e+03  -6.0 2.90e+04    -  1.53e-01 1.14e-02h  1
   5 -5.5134797e+00 5.83e+01 5.73e+03  -6.0 6.14e+03    -  7.33e-02 3.29e-02h  1
   6 -5.6978905e+00 4.67e+01 1.15e+03  -6.0 5.90e+03    -  4.88e-01 2.16e-01h  1
   7 -5.8457124e+00 3.78e+01 9.43e+02  -6.0 4.22e+03    -  6.81e-02 2.72e-01h  1
   8 -5.8371887e+00 2.81e+01 6.96e+02  -6.0 2.39e+01  -4.0 8.72e-07 2.56e-01h  1
   9 -5.8366549e+00 2.78e+01 6.88e+02  -6.0 5.92e+02  -4.5 1.70e-02 1.14e-02h  1
iter    objective    inf_pr   inf_du lg(mu)  ||d||  lg(rg) alpha_du alpha_pr  ls
  10 -5.8269765e+00 4.06e+00 1.67e+02  -6.0 2.18e+01  -5.0 2.76e-01 8.54e-01h  1
  11 -5.8595973e+00 6.05e-02 1.44e+02  -6.0 5.67e+01  -5.4 3.28e-01 1.00e+00h  1
  12 -6.0515115e+00 9.18e+00 1.61e+03  -6.0 6.10e+01  -5.9 5.60e-01 9.21e-01h  1
  13 -6.0651620e+00 7.83e+00 1.40e+03  -6.0 4.53e+03    -  8.95e-05 1.45e-01h  1
  14 -6.0715311e+00 1.41e+01 1.26e+03  -6.0 7.71e+03    -  5.64e-02 1.03e-01h  1
  15 -6.0808948e+00 4.24e+01 4.51e+03  -6.0 3.38e+03    -  3.52e-02 4.54e-01h  1
  16 -6.0745941e+00 3.70e+01 3.89e+03  -6.0 1.12e+03    -  7.72e-02 1.28e-01h  2
  17 -6.0720455e+00 2.87e+01 2.98e+03  -6.0 1.28e+03    -  1.75e-01 2.27e-01h  1
  18 -6.0714948e+00 2.79e+01 3.12e+03  -6.0 6.69e+02    -  5.50e-01 2.78e-02h  5
  19 -6.0436774e+00 1.41e+00 1.90e+04  -6.0 2.17e+02  -6.4 1.07e-01 1.00e+00h  1
iter    objective    inf_pr   inf_du lg(mu)  ||d||  lg(rg) alpha_du alpha_pr  ls
  20 -6.0529084e+00 8.96e-02 4.78e+02  -6.0 6.97e+01  -6.9 5.98e-01 1.00e+00h  1
  21 -6.0634874e+00 2.24e+00 5.48e+02  -6.0 4.82e+02  -7.3 2.76e-01 4.47e-01h  1
  22 -6.0691401e+00 1.88e+00 1.55e+04  -6.0 1.96e+03    -  4.13e-01 1.54e-01h  1
  23 -6.0791667e+00 1.17e+00 4.90e+04  -6.0 1.51e+03    -  1.00e+00 3.35e-01h  1
  24 -6.0926452e+00 1.08e+00 4.56e+04  -6.0 1.27e+03    -  8.13e-01 4.85e-01h  1
  25 -6.1002662e+00 2.18e+00 1.39e+05  -6.0 9.92e+02    -  1.00e+00 3.11e-01h  1
  26 -6.1176053e+00 1.88e+00 1.17e+05  -6.0 7.74e+02    -  1.71e-03 8.44e-01h  1
  27 -6.1220197e+00 1.36e+00 8.45e+05  -6.0 2.21e+02  -7.8 6.28e-02 2.62e-01h  1
  28 -6.1220323e+00 1.36e+00 8.46e+05  -6.0 1.12e+04    -  1.38e-02 1.43e-05h  1
  29 -6.1350947e+00 1.93e+00 3.95e+04  -6.0 7.18e+02    -  3.58e-01 4.89e-01f  1
iter    objective    inf_pr   inf_du lg(mu)  ||d||  lg(rg) alpha_du alpha_pr  ls
  30 -6.1359809e+00 3.63e-01 5.04e+07  -6.0 2.25e+02    -  2.46e-02 1.00e+00h  1
  31 -6.1359432e+00 2.32e+00 2.07e+07  -6.0 6.09e+02    -  1.00e+00 5.89e-01h  1
  32 -6.1376947e+00 1.49e+00 5.58e+04  -6.0 2.93e+02    -  1.00e+00 1.00e+00h  1
  33 -6.1365221e+00 2.73e-02 6.51e+01  -6.0 2.97e+01    -  9.42e-01 1.00e+00h  1
  34 -6.1363593e+00 6.95e-04 3.25e-02  -6.0 4.12e+00    -  1.00e+00 1.00e+00h  1
  35 -6.1363471e+00 2.85e-06 2.73e-04  -6.0 2.64e-01    -  1.00e+00 1.00e+00h  1
  36 -6.1363469e+00 1.81e-08 9.89e-07  -6.0 2.10e-02    -  1.00e+00 1.00e+00h  1
  37 -6.1364559e+00 2.81e+00 7.18e+00  -7.5 5.40e+02    -  8.13e-01 7.88e-01h  1
  38 -6.1364475e+00 5.34e-01 8.24e+00  -7.5 1.25e+02    -  1.00e+00 8.81e-01h  1
  39 -6.1364442e+00 2.62e-03 1.24e-02  -7.5 1.23e+01    -  1.00e+00 1.00e+00h  1
iter    objective    inf_pr   inf_du lg(mu)  ||d||  lg(rg) alpha_du alpha_pr  ls
  40 -6.1364442e+00 3.98e-06 6.31e-07  -7.5 5.03e-01    -  1.00e+00 1.00e+00h  1
  41 -6.1364442e+00 4.22e-09 6.91e-10  -7.5 1.63e-02    -  1.00e+00 1.00e+00h  1
  42 -6.1364456e+00 2.96e-03 8.16e-01  -9.0 1.64e+01    -  9.23e-01 8.34e-01h  1
  43 -6.1364459e+00 5.49e-05 2.91e-01  -9.0 1.85e+00    -  9.34e-01 1.00e+00h  1
  44 -6.1364459e+00 9.41e-07 1.66e-07  -9.0 2.43e-01    -  1.00e+00 1.00e+00h  1
  45 -6.1364459e+00 3.03e-09 5.20e-10  -9.0 1.38e-02    -  1.00e+00 1.00e+00h  1

Number of Iterations....: 45

                                   (scaled)                 (unscaled)
Objective...............:  -4.7940983427423935e+00   -6.1364458787102638e+00
Dual infeasibility......:   5.1969910743358999e-10    6.6521485751499523e-10
Constraint violation....:   1.9014971043254734e-09    3.0304363463073969e-09
Complementarity.........:   9.3534668816365306e-10    1.1972437608494759e-09
Overall NLP error.......:   1.9014971043254734e-09    3.0304363463073969e-09


Number of objective function evaluations             = 56
Number of objective gradient evaluations             = 46
Number of equality constraint evaluations            = 56
Number of inequality constraint evaluations          = 56
Number of equality constraint Jacobian evaluations   = 46
Number of inequality constraint Jacobian evaluations = 46
Number of Lagrangian Hessian evaluations             = 45
Total CPU secs in IPOPT (w/o function evaluations)   =    106.895
Total CPU secs in NLP function evaluations           =      3.185

EXIT: Optimal Solution Found.
